%mem=30gb
%nproc=8

#B3LYP/cc-pVDZ Integral(Grid=SuperFineGrid) Force

Optimization 

0 1
H
O 1 r1
C 2 r2 1 a1
H 3 r3 2 a2 1 d1
H 3 r4 4 a3 2 d2
H 3 r4 4 a3 2 d3
  Variables:
r1    0.992
r2    1.398
r3    1.109
r4    1.112
a1    106.0
a2    108.9
a3    108.2
d2    119.9
d3   -119.9
d1   -180.0

