%mem=30gb
%nproc=8

#B3LYP/cc-pVDZ Integral(Grid=SuperFineGrid) Opt=(ts,calcfc,noeig,Cartesian) Freq 

Optimization 

0 1
H       0.000000    0.000000    0.000000
O       0.000000    0.000000    0.992000
C       1.343844    0.000000    1.377341
H       1.978354    0.000000    0.467793
H       1.577009   -0.915763    1.963478
H       1.577009    0.915763    1.963478

