# Orca 4.0 Computation 

! RHF 
! 6-31G*

* xyz 0 1
 O          0.0000000000       -0.0530229169        0.0000000000
 H          0.0000000000        0.5556614584       -0.7504910643
 H          0.0000000000        0.5556614584        0.7504910643
*

