%mem=30gb
%nproc=1

# UHF CCSD/cc-pVDZ

Single Point 

0 2
O       0.000000    0.000000    0.000000
O       0.000000    0.000000    1.311565
H       0.943625    0.000000    1.573176

