%mem=30gb
%nproc=8

#B3LYP/cc-pVDZ Integral(Grid=SuperFineGrid) Opt=(Cartesian) Freq 

Optimization 

0 1
H        0.000000    0.000000    0.000000
O        0.000000    0.000000    0.992000
C        1.343844    0.000000    1.377341
H        1.399951   -0.000000    2.484921
H        1.852185    0.915763    1.003828
H        1.852185   -0.915763    1.003828

