# Orca 4.0 Computation 

! ROHF 
! 6-31G*

* xyz 0 3
 C          0.0000000000        0.0696643962        0.0000000000
 H          0.0000000000        0.5136378019       -1.0016934426
 H          0.0000000000        0.5136378019        1.0016934426
*

