# Orca 4.0 Computation 

! RHF MP2
! cc-pVDZ 

* xyz 0 1
 O      0.000000    0.000000    0.000000
 C      0.000000    0.000000    1.201402
 H      0.937573    0.000000    1.789196
 H     -0.937573   -0.000000    1.789196
*

