# Psi4 1.0 Computation 

molecule {
 0 2
 O       0.000000    0.000000    0.000000
 O       0.000000    0.000000    1.311565
 H       0.943625    0.000000    1.573176
 units angstrom
}

set reference uhf
set scf_type pk
set basis cc-pVDZ

energy('scf')

