# Orca 4.0 Computation 

! B3LYP/G 
! cc-pVDZ 
! EnGrad

* gzmt 0 1
H
O 1 0.990
C 2 1.398 1 106.0
H 3 1.109 2 108.9 1 -180.0
H 3 1.112 4 108.2 2  119.0
H 3 1.112 4 108.2 2 -119.0
*

